p cnf 12 50 
-7 -6 -11 0
-1 -4 -3 0
9 6 -4 0
-10 -1 -4 0
6 -5 11 0
-5 -3 -9 0
7 -12 -10 0
2 11 3 0
12 5 -6 0
-6 -7 9 0
-8 7 5 0
9 -4 2 0
3 2 -10 0
-7 12 10 0
-10 -7 -6 0
-2 12 5 0
5 -1 -12 0
2 1 5 0
-8 -4 10 0
11 -12 -6 0
-4 9 -7 0
-10 -4 7 0
4 9 -12 0
-2 10 -12 0
12 3 -5 0
-11 -3 -12 0
-8 -1 -12 0
-9 -11 -8 0
-8 -5 -7 0
-11 6 3 0
-10 -11 -6 0
5 2 -12 0
-7 -11 -12 0
8 -11 -1 0
2 -8 -7 0
7 1 -2 0
-9 8 -1 0
-9 -10 -6 0
7 -4 -2 0
-8 -10 -5 0
-8 4 -11 0
-2 -5 -6 0
-8 -1 9 0
9 -11 4 0
-5 -3 -8 0
-6 3 12 0
-8 1 -9 0
9 -5 -12 0
-8 7 12 0
-9 1 -6 0
